32	2
11	16
0	0	0	1	2
3	11	12	1	3
3	0	0	1	4
1	2	0	1	5
8	7	7	2	6	9
3	7	14	1	7
9	8	4	1	8
1	0	16	1	10
3	4	0	1	10
1	0	0	1	11
3	0	0	1	12
7	0	6	1	13
5	0	13	1	14
5	0	1	2	15	17
4	0	2	1	16
7	11	0	1	18
10	1	0	1	18
3	1	0	1	19
3	0	8	1	20
1	4	0	2	21	23
10	5	0	1	22
6	0	0	1	24
10	5	0	1	24
9	0	16	1	25
9	5	0	1	26
8	7	0	1	27
7	0	6	1	28
4	0	1	1	29
2	0	10	1	30
7	5	4	1	31
2	0	0	1	32
0	0	0	0
